3 3 2
20 0 72 2 17 0 53 1 128 2 43 0 92 2 37 1 170 2 27 1 154 0 54 1 43 0 83 1 30 2 38 0 40 2 85 0 99 1 160 0 21 
20 2 52 1 85 0 36 1 49 2 27 0 10 1 124 2 115 0 166 2 176 1 91 0 109 1 40 2 102 1 25 0 38 2 125 1 40 2 106 0 26 
20 1 102 2 22 1 158 2 93 0 21 2 114 1 170 2 164 0 139 1 180 0 78 2 191 1 18 2 33 0 10 2 103 0 20 2 1 0 149 2 11 

-------------
